p wcnf 150 225 226 
1 -144 5 0 
1 -92 -137 0 
1 -143 119 0 
1 15 141 0 
1 -64 -21 0 
1 87 55 0 
1 140 17 0 
1 104 -24 0 
1 48 19 0 
1 -73 41 0 
1 85 135 0 
1 43 85 0 
1 33 58 0 
1 -98 119 0 
1 58 60 0 
1 141 -67 0 
1 -86 108 0 
1 -66 84 0 
1 -45 -17 0 
1 -74 -101 0 
1 145 102 0 
1 70 85 0 
1 -14 144 0 
1 -123 90 0 
1 75 -85 0 
1 -114 -68 0 
1 68 -128 0 
1 -147 50 0 
1 -94 145 0 
1 -125 -70 0 
1 -11 -135 0 
1 134 -89 0 
1 91 8 0 
1 -10 -74 0 
1 91 32 0 
1 -110 -85 0 
1 -68 116 0 
1 114 -52 0 
1 -61 145 0 
1 -42 62 0 
1 -113 23 0 
1 14 43 0 
1 17 83 0 
1 -80 20 0 
1 79 32 0 
1 -32 38 0 
1 114 66 0 
1 54 -95 0 
1 -113 55 0 
1 -118 107 0 
1 -79 21 0 
1 138 105 0 
1 -84 -139 0 
1 130 80 0 
1 -33 -26 0 
1 94 -100 0 
1 67 -147 0 
1 -43 -10 0 
1 -76 26 0 
1 -101 -150 0 
1 87 -78 0 
1 -97 63 0 
1 61 -125 0 
1 143 -140 0 
1 -116 148 0 
1 -42 -20 0 
1 -111 107 0 
1 81 -63 0 
1 89 -92 0 
1 -25 -84 0 
1 -130 97 0 
1 -92 15 0 
1 145 -69 0 
1 120 95 0 
1 130 31 0 
1 127 -146 0 
1 -89 128 0 
1 -15 59 0 
1 -8 48 0 
1 40 -118 0 
1 -73 36 0 
1 89 110 0 
1 52 -10 0 
1 131 -66 0 
1 -65 98 0 
1 -138 -112 0 
1 77 -33 0 
1 -117 -64 0 
1 -39 -108 0 
1 -127 32 0 
1 -127 -148 0 
1 146 -130 0 
1 78 30 0 
1 -105 -101 0 
1 103 74 0 
1 -84 57 0 
1 147 -107 0 
1 58 16 0 
1 -31 -66 0 
1 -127 -20 0 
1 20 -41 0 
1 9 -42 0 
1 6 -138 0 
1 -3 131 0 
1 -75 -147 0 
1 125 43 0 
1 7 141 0 
1 100 99 0 
1 -25 64 0 
1 138 17 0 
1 138 148 0 
1 138 -15 0 
1 74 103 0 
1 27 -85 0 
1 146 8 0 
1 -105 20 0 
1 -124 -26 0 
1 -110 -21 0 
1 46 141 0 
1 -83 -122 0 
1 62 -42 0 
1 -79 52 0 
1 56 -19 0 
1 92 64 0 
1 -13 -146 0 
1 134 96 0 
1 -48 -144 0 
1 138 -30 0 
1 23 150 0 
1 66 97 0 
1 -33 -147 0 
1 50 -42 0 
1 149 -44 0 
1 -141 16 0 
1 -24 136 0 
1 89 -95 0 
1 -106 -64 0 
1 -86 62 0 
1 113 22 0 
1 -109 -119 0 
1 -24 -142 0 
1 117 -132 0 
1 -93 -70 0 
1 -88 -33 0 
1 -146 61 0 
1 -80 112 0 
1 -86 -6 0 
1 -58 -108 0 
1 -110 -73 0 
1 81 98 0 
1 124 11 0 
1 -7 -69 0 
1 121 133 0 
1 -74 -94 0 
1 -81 -12 0 
1 -133 -24 0 
1 3 90 0 
1 -89 -142 0 
1 -41 -32 0 
1 34 -90 0 
1 -58 37 0 
1 -142 80 0 
1 -35 -81 0 
1 115 73 0 
1 139 2 0 
1 -44 -119 0 
1 64 75 0 
1 14 121 0 
1 -131 -123 0 
1 123 81 0 
1 88 101 0 
1 -82 -61 0 
1 -146 -66 0 
1 -22 -41 0 
1 -96 -134 0 
1 139 23 0 
1 -66 81 0 
1 4 84 0 
1 31 -46 0 
1 32 -35 0 
1 -63 64 0 
1 4 -121 0 
1 -104 -41 0 
1 -137 116 0 
1 23 120 0 
1 -97 19 0 
1 -134 92 0 
1 43 26 0 
1 -15 -61 0 
1 -88 -46 0 
1 -121 108 0 
1 107 6 0 
1 -71 132 0 
1 19 -109 0 
1 140 -144 0 
1 58 -74 0 
1 18 -105 0 
1 16 24 0 
1 -102 8 0 
1 33 -135 0 
1 -90 39 0 
1 67 -41 0 
1 -118 -133 0 
1 54 39 0 
1 51 43 0 
1 -29 -145 0 
1 127 -93 0 
1 118 35 0 
1 98 -74 0 
1 29 -141 0 
1 -78 -77 0 
1 -70 -148 0 
1 5 3 0 
1 70 -32 0 
1 35 -1 0 
1 25 58 0 
1 -146 123 0 
1 -2 132 0 
1 41 -37 0 
1 -85 112 0 
1 -127 141 0 
1 -123 -20 0 
1 51 -71 0 
1 -98 48 0 
1 80 -106 0 
